\ENCODING=ISO-8859-1
\Problem name: 

Maximize
 obj1: _edge0#0 + _edge1#1 + _edge2#2 + _edge3#3 + _edge4#4 + _edge5#5
       + _edge6#6 + _edge7#7 + _edge8#8 + _edge9#9 + _edge10#10 + _edge11#11
       + _edge12#12 + _edge13#13 + _edge14#14 + _edge15#15 + _edge16#16
       + _edge17#17 + _edge18#18 + _edge19#19 + _edge20#20 + _edge21#21
       + _edge22#22 + _edge23#23 + _edge24#24 + _edge25#25 + _edge26#26
       + _edge27#27 + _edge28#28 + _edge29#29 + _edge30#30 + _edge31#31
       + _edge32#32 + _edge33#33 + _edge34#34 + _edge35#35 + _edge36#36
       + _edge37#37 + _edge38#38 + _edge39#39 + _edge40#40 + _edge41#41
       + _edge42#42 + _edge43#43 + _edge44#44 + _edge45#45 + _edge46#46
       + _edge47#47 + _edge48#48 + _edge49#49 + _edge50#50 + _edge51#51
       + _edge52#52 + _edge53#53 + _edge54#54 + _edge55#55
Subject To
 _0#0: 0.111111111111111 _edge0#0 + 0.111111111111111 _edge4#4
       + 0.111111111111111 _edge8#8 + 0.111111111111111 _edge12#12
       + 0.111111111111111 _edge16#16 + 0.111111111111111 _edge20#20
       + 0.111111111111111 _edge24#24 + 0.111111111111111 _edge28#28
       + 0.111111111111111 _edge32#32 - 0.2 _edge36#36 - 0.2 _edge37#37
       - 0.2 _edge38#38 - 0.2 _edge39#39 - 0.2 _edge40#40  = 0
 _1#1: 0.111111111111111 _edge1#1 + 0.111111111111111 _edge5#5
       + 0.111111111111111 _edge9#9 + 0.111111111111111 _edge13#13
       + 0.111111111111111 _edge17#17 + 0.111111111111111 _edge21#21
       + 0.111111111111111 _edge25#25 + 0.111111111111111 _edge29#29
       + 0.111111111111111 _edge33#33 - 0.2 _edge41#41 - 0.2 _edge42#42
       - 0.2 _edge43#43 - 0.2 _edge44#44 - 0.2 _edge45#45  = 0
 _2#2: 0.111111111111111 _edge2#2 + 0.111111111111111 _edge6#6
       + 0.111111111111111 _edge10#10 + 0.111111111111111 _edge14#14
       + 0.111111111111111 _edge18#18 + 0.111111111111111 _edge22#22
       + 0.111111111111111 _edge26#26 + 0.111111111111111 _edge30#30
       + 0.111111111111111 _edge34#34 - 0.2 _edge46#46 - 0.2 _edge47#47
       - 0.2 _edge48#48 - 0.2 _edge49#49 - 0.2 _edge50#50  = 0
 _3#3: 0.111111111111111 _edge3#3 + 0.111111111111111 _edge7#7
       + 0.111111111111111 _edge11#11 + 0.111111111111111 _edge15#15
       + 0.111111111111111 _edge19#19 + 0.111111111111111 _edge23#23
       + 0.111111111111111 _edge27#27 + 0.111111111111111 _edge31#31
       + 0.111111111111111 _edge35#35 - 0.2 _edge51#51 - 0.2 _edge52#52
       - 0.2 _edge53#53 - 0.2 _edge54#54 - 0.2 _edge55#55  = 0
Bounds
 0 <= _edge0#0 <= 0.0728966314831075
 0 <= _edge1#1 <= 0.0761501818656718
 0 <= _edge2#2 <= 0.0256116556390988
 0 <= _edge3#3 <= 0.191377414058623
 0 <= _edge4#4 <= 0.0725513923228863
 0 <= _edge5#5 <= 0.0765306102925876
 0 <= _edge6#6 <= 0.0255554770434511
 0 <= _edge7#7 <= 0.194573538582473
 0 <= _edge8#8 <= 0.07356547507517
 0 <= _edge9#9 <= 0.0754337421314132
 0 <= _edge10#10 <= 0.0253492563504133
 0 <= _edge11#11 <= 0.207421069541854
 0 <= _edge12#12 <= 0.0752602763768072
 0 <= _edge13#13 <= 0.0737312075741421
 0 <= _edge14#14 <= 0.0254000508001015
 0 <= _edge15#15 <= 0.204081632653065
 0 <= _edge16#16 <= 0.0743463690274217
 0 <= _edge17#17 <= 0.0746299622581355
 0 <= _edge18#18 <= 0.0253535411874108
 0 <= _edge19#19 <= 0.207134627979994
 0 <= _edge20#20 <= 0.0740436065011762
 0 <= _edge21#21 <= 0.0749375489201692
 0 <= _edge22#22 <= 0.0255058661324107
 0 <= _edge23#23 <= 0.197498367182246
 0 <= _edge24#24 <= 0.0753043519514553
 0 <= _edge25#25 <= 0.0736889537679194
 0 <= _edge26#26 <= 0.0254057869453938
 0 <= _edge27#27 <= 0.203712082306205
 0 <= _edge28#28 <= 0.0709052199997528
 0 <= _edge29#29 <= 0.0784518869483211
 0 <= _edge30#30 <= 0.0253839319710624
 0 <= _edge31#31 <= 0.205128205128201
 0 <= _edge32#32 <= 0.0399144059513018
 0 <= _edge33#33 <= 0.247303709481451
 0 <= _edge34#34 <= 0.0236666163277737
 0 <= _edge35#35 <= 0.0964914642203378
 0 <= _edge36#36 <= 0.0276548672566372
 0 <= _edge37#37 <= 0.0281531531531532
 0 <= _edge38#38 <= 0.104712041884817
 0 <= _edge39#39 <= 0.118483412322275
 0 <= _edge40#40 <= 0.0344589937973811
 0 <= _edge41#41 <= 0.107411385606874
 0 <= _edge42#42 <= 0.0221680336954112
 0 <= _edge43#43 <= 0.0321957501609787
 0 <= _edge44#44 <= 0.0482392667631452
 0 <= _edge45#45 <= 0.149476831091181
 0 <= _edge46#46 <= 0.0187406296851574
 0 <= _edge47#47 <= 0.130208333333333
 0 <= _edge48#48 <= 0.0546746856205577
 0 <= _edge49#49 <= 0.0275633958103638
 0 <= _edge50#50 <= 0.0216356555603635
 0 <= _edge51#51 <= 0.0465766185374941
 0 <= _edge52#52 <= 0.0192492781520693
 0 <= _edge53#53 <= 0.0384911470361817
 0 <= _edge54#54 <= 0.116686114352392
 0 <= _edge55#55 <= 0.0697836706210746
End
